171146.0
3069
2 3 4 5 6 7 8 9 10 11 13 14 15 16 18 20 21 22 23 30 31 33 35 36 37 39 40 41 42 44 46 49 50 51 52 53 54 58 59 61 62 63 64 65 67 68 70 71 72 74 75 77 78 82 84 85 87 88 90 91 94 97 100 102 103 104 105 106 110 112 113 116 117 118 119 121 122 123 125 127 128 129 130 134 135 137 138 139 140 144 145 147 148 150 151 152 154 155 156 159 161 166 167 169 171 172 173 175 176 177 178 180 186 188 191 195 196 197 